157701
52,50,99,98,25,33,82,56,79,22,91,8,7,96,105,97,39,16,89,63,15,19,55,68,41,49,13,73,101,23,0,9,58,65,43,86,26,27,57,75,88,92,11,28,29,54,4,51,64,30,12,87,5,45,76,20,47,72,1,32,83,34,102,60,46,67,18,80,85,21,61,24,44,71,81,62,31,74,3,14,42,78,90,59,95,77,2,93,69,100,104,37,103,66,40,10,84,53,94,70,35,38,36,48,17,6,52